(set-info :smt-lib-version 2.7)
(set-logic QF_SLIA)
(set-info :source |
Generated by: Mikhail Starchak
Generated on: 2025-09-25
Application: Linear theory of string length and string-to-number conversion
Target solver: Chrobelias
Example from page 8 from 
Vojtěch Havlena, Lukáš Holík, Ondřej Lengál, and Juraj Síč. 2024.
Cooking String-Integer Conversions with Noodles. In Proceedings of SAT 2024. 
LIPIcs, Volume 305, 2024, 14:1-14:19. 
https://doi.org/10.4230/LIPIcs.SAT.2024.14
|)
(set-info :license "https://img.shields.io/badge/license-MIT-blue")
(set-info :category "crafted")
(set-info :status unsat)

(declare-fun x () String)
(declare-fun z () Int)

(assert (<= (str.len x) 3))
(assert (<= 1000 z))
(assert (= z (str.to.int x)))
(check-sat)

(exit)